1624721
26,55,46,34,66,11,64,67,38,7,43,22,14,52,33,57,18,10,44,31,28,50,36,8,53,37,62,39,51,35,68,15,59,16,2,9,58,17,27,45,65,20,48,4,47,13,54,1,24,63,21,3,61,42,12,32,56,40,5,29,60,19,49,23,6,41,30,25